Minimize
  Backup_Capacity[0,1] + Backup_Capacity[0,2] + Backup_Capacity[0,3]
   + Backup_Capacity[1,0] + Backup_Capacity[1,2] + Backup_Capacity[1,3]
   + Backup_Capacity[2,0] + Backup_Capacity[2,1] + Backup_Capacity[2,3]
   + Backup_Capacity[3,0] + Backup_Capacity[3,1] + Backup_Capacity[3,2]
   + 0 R[0,1,1] + 0 R[0,1,2] + 0 R[0,1,3] + 0 R[0,1,4] + 0 R[0,1,7]
   + 0 R[0,1,8] + 0 R[0,1,9] + 0 R[0,1,12] + 0 R[0,1,13] + 0 R[0,1,14]
   + 0 R[0,1,15] + 0 R[0,1,16] + 0 R[0,1,17] + 0 R[0,1,18] + 0 R[0,1,19]
   + 0 R[0,1,20] + 0 R[0,1,21] + 0 R[0,1,22] + 0 R[0,1,23] + 0 R[0,1,24]
   + 0 R[0,1,25] + 0 R[0,1,26] + 0 R[0,1,27] + 0 R[0,1,28] + 0 R[0,1,29]
   + 0 R[0,1,30] + 0 R[0,1,31] + 0 R[0,1,32] + 0 R[0,1,33] + 0 R[0,1,34]
   + 0 R[0,1,36] + 0 R[0,1,37] + 0 R[0,1,39] + 0 R[0,1,41] + 0 R[0,1,42]
   + 0 R[0,1,43] + 0 R[0,1,44] + 0 R[0,1,45] + 0 R[0,1,46] + 0 R[0,1,47]
   + 0 R[0,1,48] + 0 R[0,1,49] + 0 R[0,1,51] + 0 R[0,1,52] + 0 R[0,1,54]
   + 0 R[0,1,56] + 0 R[0,1,57] + 0 R[0,1,58] + 0 R[0,1,59] + 0 R[0,2,0]
   + 0 R[0,2,3] + 0 R[0,2,4] + 0 R[0,2,5] + 0 R[0,2,6] + 0 R[0,2,8]
   + 0 R[0,2,9] + 0 R[0,2,10] + 0 R[0,2,11] + 0 R[0,2,14] + 0 R[0,2,15]
   + 0 R[0,2,16] + 0 R[0,2,17] + 0 R[0,2,18] + 0 R[0,2,19] + 0 R[0,2,21]
   + 0 R[0,2,22] + 0 R[0,2,24] + 0 R[0,2,26] + 0 R[0,2,27] + 0 R[0,2,28]
   + 0 R[0,2,29] + 0 R[0,2,30] + 0 R[0,2,31] + 0 R[0,2,32] + 0 R[0,2,33]
   + 0 R[0,2,34] + 0 R[0,2,35] + 0 R[0,2,36] + 0 R[0,2,37] + 0 R[0,2,38]
   + 0 R[0,2,39] + 0 R[0,2,40] + 0 R[0,2,41] + 0 R[0,2,42] + 0 R[0,2,43]
   + 0 R[0,2,44] + 0 R[0,2,45] + 0 R[0,2,46] + 0 R[0,2,47] + 0 R[0,2,48]
   + 0 R[0,2,49] + 0 R[0,2,50] + 0 R[0,2,52] + 0 R[0,2,53] + 0 R[0,2,54]
   + 0 R[0,2,55] + 0 R[0,2,58] + 0 R[0,2,59] + 0 R[0,3,0] + 0 R[0,3,1]
   + 0 R[0,3,2] + 0 R[0,3,5] + 0 R[0,3,6] + 0 R[0,3,7] + 0 R[0,3,10]
   + 0 R[0,3,11] + 0 R[0,3,12] + 0 R[0,3,13] + 0 R[0,3,15] + 0 R[0,3,16]
   + 0 R[0,3,17] + 0 R[0,3,18] + 0 R[0,3,19] + 0 R[0,3,20] + 0 R[0,3,22]
   + 0 R[0,3,23] + 0 R[0,3,24] + 0 R[0,3,25] + 0 R[0,3,28] + 0 R[0,3,29]
   + 0 R[0,3,30] + 0 R[0,3,31] + 0 R[0,3,32] + 0 R[0,3,33] + 0 R[0,3,34]
   + 0 R[0,3,35] + 0 R[0,3,37] + 0 R[0,3,38] + 0 R[0,3,39] + 0 R[0,3,40]
   + 0 R[0,3,43] + 0 R[0,3,44] + 0 R[0,3,45] + 0 R[0,3,46] + 0 R[0,3,47]
   + 0 R[0,3,48] + 0 R[0,3,49] + 0 R[0,3,50] + 0 R[0,3,51] + 0 R[0,3,52]
   + 0 R[0,3,53] + 0 R[0,3,54] + 0 R[0,3,55] + 0 R[0,3,56] + 0 R[0,3,57]
   + 0 R[0,3,58] + 0 R[0,3,59] + 0 R[1,0,0] + 0 R[1,0,1] + 0 R[1,0,2]
   + 0 R[1,0,3] + 0 R[1,0,4] + 0 R[1,0,5] + 0 R[1,0,6] + 0 R[1,0,7]
   + 0 R[1,0,8] + 0 R[1,0,9] + 0 R[1,0,10] + 0 R[1,0,11] + 0 R[1,0,12]
   + 0 R[1,0,13] + 0 R[1,0,14] + 0 R[1,0,16] + 0 R[1,0,17] + 0 R[1,0,18]
   + 0 R[1,0,19] + 0 R[1,0,22] + 0 R[1,0,23] + 0 R[1,0,24] + 0 R[1,0,27]
   + 0 R[1,0,28] + 0 R[1,0,29] + 0 R[1,0,30] + 0 R[1,0,32] + 0 R[1,0,33]
   + 0 R[1,0,35] + 0 R[1,0,36] + 0 R[1,0,37] + 0 R[1,0,38] + 0 R[1,0,39]
   + 0 R[1,0,40] + 0 R[1,0,41] + 0 R[1,0,43] + 0 R[1,0,44] + 0 R[1,0,45]
   + 0 R[1,0,47] + 0 R[1,0,48] + 0 R[1,0,50] + 0 R[1,0,51] + 0 R[1,0,52]
   + 0 R[1,0,53] + 0 R[1,0,54] + 0 R[1,0,55] + 0 R[1,0,56] + 0 R[1,0,58]
   + 0 R[1,0,59] + 0 R[1,2,0] + 0 R[1,2,1] + 0 R[1,2,2] + 0 R[1,2,3]
   + 0 R[1,2,4] + 0 R[1,2,6] + 0 R[1,2,7] + 0 R[1,2,9] + 0 R[1,2,11]
   + 0 R[1,2,12] + 0 R[1,2,13] + 0 R[1,2,14] + 0 R[1,2,15] + 0 R[1,2,18]
   + 0 R[1,2,19] + 0 R[1,2,20] + 0 R[1,2,21] + 0 R[1,2,23] + 0 R[1,2,24]
   + 0 R[1,2,25] + 0 R[1,2,26] + 0 R[1,2,29] + 0 R[1,2,30] + 0 R[1,2,31]
   + 0 R[1,2,32] + 0 R[1,2,33] + 0 R[1,2,34] + 0 R[1,2,35] + 0 R[1,2,36]
   + 0 R[1,2,37] + 0 R[1,2,38] + 0 R[1,2,39] + 0 R[1,2,40] + 0 R[1,2,41]
   + 0 R[1,2,42] + 0 R[1,2,43] + 0 R[1,2,44] + 0 R[1,2,45] + 0 R[1,2,46]
   + 0 R[1,2,48] + 0 R[1,2,49] + 0 R[1,2,50] + 0 R[1,2,51] + 0 R[1,2,52]
   + 0 R[1,2,53] + 0 R[1,2,54] + 0 R[1,2,56] + 0 R[1,2,57] + 0 R[1,2,59]
   + 0 R[1,3,0] + 0 R[1,3,1] + 0 R[1,3,2] + 0 R[1,3,3] + 0 R[1,3,4]
   + 0 R[1,3,5] + 0 R[1,3,7] + 0 R[1,3,8] + 0 R[1,3,9] + 0 R[1,3,10]
   + 0 R[1,3,13] + 0 R[1,3,14] + 0 R[1,3,15] + 0 R[1,3,16] + 0 R[1,3,17]
   + 0 R[1,3,20] + 0 R[1,3,21] + 0 R[1,3,22] + 0 R[1,3,25] + 0 R[1,3,26]
   + 0 R[1,3,27] + 0 R[1,3,28] + 0 R[1,3,30] + 0 R[1,3,31] + 0 R[1,3,33]
   + 0 R[1,3,34] + 0 R[1,3,35] + 0 R[1,3,36] + 0 R[1,3,37] + 0 R[1,3,38]
   + 0 R[1,3,39] + 0 R[1,3,41] + 0 R[1,3,42] + 0 R[1,3,44] + 0 R[1,3,45]
   + 0 R[1,3,46] + 0 R[1,3,47] + 0 R[1,3,48] + 0 R[1,3,49] + 0 R[1,3,50]
   + 0 R[1,3,51] + 0 R[1,3,52] + 0 R[1,3,53] + 0 R[1,3,54] + 0 R[1,3,55]
   + 0 R[1,3,56] + 0 R[1,3,57] + 0 R[1,3,58] + 0 R[1,3,59] + 0 R[2,0,0]
   + 0 R[2,0,1] + 0 R[2,0,2] + 0 R[2,0,3] + 0 R[2,0,4] + 0 R[2,0,5]
   + 0 R[2,0,6] + 0 R[2,0,7] + 0 R[2,0,8] + 0 R[2,0,9] + 0 R[2,0,10]
   + 0 R[2,0,11] + 0 R[2,0,12] + 0 R[2,0,13] + 0 R[2,0,14] + 0 R[2,0,15]
   + 0 R[2,0,17] + 0 R[2,0,18] + 0 R[2,0,20] + 0 R[2,0,21] + 0 R[2,0,22]
   + 0 R[2,0,23] + 0 R[2,0,24] + 0 R[2,0,25] + 0 R[2,0,26] + 0 R[2,0,28]
   + 0 R[2,0,29] + 0 R[2,0,31] + 0 R[2,0,32] + 0 R[2,0,33] + 0 R[2,0,34]
   + 0 R[2,0,37] + 0 R[2,0,38] + 0 R[2,0,39] + 0 R[2,0,42] + 0 R[2,0,43]
   + 0 R[2,0,44] + 0 R[2,0,45] + 0 R[2,0,46] + 0 R[2,0,49] + 0 R[2,0,50]
   + 0 R[2,0,51] + 0 R[2,0,52] + 0 R[2,0,54] + 0 R[2,0,55] + 0 R[2,0,56]
   + 0 R[2,0,57] + 0 R[2,0,58] + 0 R[2,0,59] + 0 R[2,1,0] + 0 R[2,1,2]
   + 0 R[2,1,3] + 0 R[2,1,5] + 0 R[2,1,6] + 0 R[2,1,7] + 0 R[2,1,8]
   + 0 R[2,1,9] + 0 R[2,1,10] + 0 R[2,1,11] + 0 R[2,1,13] + 0 R[2,1,14]
   + 0 R[2,1,15] + 0 R[2,1,16] + 0 R[2,1,17] + 0 R[2,1,18] + 0 R[2,1,19]
   + 0 R[2,1,20] + 0 R[2,1,21] + 0 R[2,1,22] + 0 R[2,1,23] + 0 R[2,1,24]
   + 0 R[2,1,25] + 0 R[2,1,26] + 0 R[2,1,27] + 0 R[2,1,28] + 0 R[2,1,29]
   + 0 R[2,1,30] + 0 R[2,1,33] + 0 R[2,1,34] + 0 R[2,1,35] + 0 R[2,1,36]
   + 0 R[2,1,38] + 0 R[2,1,39] + 0 R[2,1,40] + 0 R[2,1,41] + 0 R[2,1,44]
   + 0 R[2,1,45] + 0 R[2,1,46] + 0 R[2,1,47] + 0 R[2,1,48] + 0 R[2,1,50]
   + 0 R[2,1,52] + 0 R[2,1,53] + 0 R[2,1,55] + 0 R[2,1,56] + 0 R[2,1,57]
   + 0 R[2,1,58] + 0 R[2,1,59] + 0 R[2,3,0] + 0 R[2,3,1] + 0 R[2,3,3]
   + 0 R[2,3,4] + 0 R[2,3,5] + 0 R[2,3,6] + 0 R[2,3,7] + 0 R[2,3,8]
   + 0 R[2,3,9] + 0 R[2,3,11] + 0 R[2,3,12] + 0 R[2,3,14] + 0 R[2,3,15]
   + 0 R[2,3,16] + 0 R[2,3,18] + 0 R[2,3,19] + 0 R[2,3,20] + 0 R[2,3,21]
   + 0 R[2,3,22] + 0 R[2,3,23] + 0 R[2,3,24] + 0 R[2,3,26] + 0 R[2,3,27]
   + 0 R[2,3,29] + 0 R[2,3,30] + 0 R[2,3,31] + 0 R[2,3,32] + 0 R[2,3,35]
   + 0 R[2,3,36] + 0 R[2,3,37] + 0 R[2,3,40] + 0 R[2,3,41] + 0 R[2,3,42]
   + 0 R[2,3,43] + 0 R[2,3,45] + 0 R[2,3,46] + 0 R[2,3,47] + 0 R[2,3,48]
   + 0 R[2,3,49] + 0 R[2,3,50] + 0 R[2,3,51] + 0 R[2,3,52] + 0 R[2,3,53]
   + 0 R[2,3,54] + 0 R[2,3,55] + 0 R[2,3,56] + 0 R[2,3,57] + 0 R[2,3,58]
   + 0 R[2,3,59] + 0 R[3,0,0] + 0 R[3,0,1] + 0 R[3,0,2] + 0 R[3,0,3]
   + 0 R[3,0,4] + 0 R[3,0,5] + 0 R[3,0,6] + 0 R[3,0,7] + 0 R[3,0,8]
   + 0 R[3,0,9] + 0 R[3,0,10] + 0 R[3,0,11] + 0 R[3,0,12] + 0 R[3,0,13]
   + 0 R[3,0,14] + 0 R[3,0,15] + 0 R[3,0,16] + 0 R[3,0,19] + 0 R[3,0,20]
   + 0 R[3,0,21] + 0 R[3,0,22] + 0 R[3,0,24] + 0 R[3,0,25] + 0 R[3,0,26]
   + 0 R[3,0,27] + 0 R[3,0,28] + 0 R[3,0,29] + 0 R[3,0,30] + 0 R[3,0,31]
   + 0 R[3,0,34] + 0 R[3,0,35] + 0 R[3,0,36] + 0 R[3,0,37] + 0 R[3,0,39]
   + 0 R[3,0,40] + 0 R[3,0,41] + 0 R[3,0,42] + 0 R[3,0,43] + 0 R[3,0,44]
   + 0 R[3,0,46] + 0 R[3,0,47] + 0 R[3,0,48] + 0 R[3,0,49] + 0 R[3,0,52]
   + 0 R[3,0,53] + 0 R[3,0,54] + 0 R[3,0,57] + 0 R[3,0,58] + 0 R[3,0,59]
   + 0 R[3,1,0] + 0 R[3,1,1] + 0 R[3,1,4] + 0 R[3,1,5] + 0 R[3,1,6]
   + 0 R[3,1,7] + 0 R[3,1,9] + 0 R[3,1,10] + 0 R[3,1,11] + 0 R[3,1,12]
   + 0 R[3,1,13] + 0 R[3,1,14] + 0 R[3,1,15] + 0 R[3,1,16] + 0 R[3,1,17]
   + 0 R[3,1,18] + 0 R[3,1,19] + 0 R[3,1,20] + 0 R[3,1,21] + 0 R[3,1,22]
   + 0 R[3,1,23] + 0 R[3,1,24] + 0 R[3,1,25] + 0 R[3,1,26] + 0 R[3,1,27]
   + 0 R[3,1,28] + 0 R[3,1,29] + 0 R[3,1,30] + 0 R[3,1,31] + 0 R[3,1,32]
   + 0 R[3,1,33] + 0 R[3,1,35] + 0 R[3,1,37] + 0 R[3,1,38] + 0 R[3,1,40]
   + 0 R[3,1,41] + 0 R[3,1,42] + 0 R[3,1,43] + 0 R[3,1,44] + 0 R[3,1,45]
   + 0 R[3,1,48] + 0 R[3,1,49] + 0 R[3,1,50] + 0 R[3,1,51] + 0 R[3,1,53]
   + 0 R[3,1,54] + 0 R[3,1,55] + 0 R[3,1,56] + 0 R[3,1,59] + 0 R[3,2,0]
   + 0 R[3,2,1] + 0 R[3,2,2] + 0 R[3,2,3] + 0 R[3,2,5] + 0 R[3,2,7]
   + 0 R[3,2,8] + 0 R[3,2,10] + 0 R[3,2,11] + 0 R[3,2,12] + 0 R[3,2,13]
   + 0 R[3,2,14] + 0 R[3,2,15] + 0 R[3,2,16] + 0 R[3,2,17] + 0 R[3,2,18]
   + 0 R[3,2,20] + 0 R[3,2,22] + 0 R[3,2,23] + 0 R[3,2,25] + 0 R[3,2,26]
   + 0 R[3,2,27] + 0 R[3,2,28] + 0 R[3,2,29] + 0 R[3,2,30] + 0 R[3,2,31]
   + 0 R[3,2,32] + 0 R[3,2,33] + 0 R[3,2,34] + 0 R[3,2,35] + 0 R[3,2,36]
   + 0 R[3,2,37] + 0 R[3,2,38] + 0 R[3,2,39] + 0 R[3,2,40] + 0 R[3,2,41]
   + 0 R[3,2,42] + 0 R[3,2,43] + 0 R[3,2,44] + 0 R[3,2,45] + 0 R[3,2,46]
   + 0 R[3,2,47] + 0 R[3,2,50] + 0 R[3,2,51] + 0 R[3,2,52] + 0 R[3,2,55]
   + 0 R[3,2,56] + 0 R[3,2,57] + 0 R[3,2,58]
Subject To
 [CONST]Link_Cap[0][1]: Backup_Capacity[0,1] - 0.025 Backup_Path[0]
   - 0.025 Backup_Path[5] - 0.025 Backup_Path[6] - 0.025 Backup_Path[10]
   - 0.025 Backup_Path[11] - 0.025 Backup_Path[35] - 0.025 Backup_Path[38]
   - 0.025 Backup_Path[40] - 0.025 Backup_Path[50] - 0.025 Backup_Path[53]
   - 0.025 Backup_Path[55] - 2.326347874 U[0,1] >= 0
 [CONST]Link_Cap[0][2]: Backup_Capacity[0,2] - 0.025 Backup_Path[1]
   - 0.025 Backup_Path[2] - 0.025 Backup_Path[7] - 0.025 Backup_Path[12]
   - 0.025 Backup_Path[13] - 0.025 Backup_Path[20] - 0.025 Backup_Path[23]
   - 0.025 Backup_Path[25] - 0.025 Backup_Path[51] - 0.025 Backup_Path[56]
   - 0.025 Backup_Path[57] - 2.326347874 U[0,2] >= 0
 [CONST]Link_Cap[0][3]: Backup_Capacity[0,3] - 0.025 Backup_Path[3]
   - 0.025 Backup_Path[4] - 0.025 Backup_Path[8] - 0.025 Backup_Path[9]
   - 0.025 Backup_Path[14] - 0.025 Backup_Path[21] - 0.025 Backup_Path[26]
   - 0.025 Backup_Path[27] - 0.025 Backup_Path[36] - 0.025 Backup_Path[41]
   - 0.025 Backup_Path[42] - 2.326347874 U[0,3] >= 0
 [CONST]Link_Cap[1][0]: Backup_Capacity[1,0] - 0.025 Backup_Path[15]
   - 0.025 Backup_Path[20] - 0.025 Backup_Path[21] - 0.025 Backup_Path[25]
   - 0.025 Backup_Path[26] - 0.025 Backup_Path[31] - 0.025 Backup_Path[34]
   - 0.025 Backup_Path[42] - 0.025 Backup_Path[46] - 0.025 Backup_Path[49]
   - 0.025 Backup_Path[57] - 2.326347874 U[1,0] >= 0
 [CONST]Link_Cap[1][2]: Backup_Capacity[1,2] - 0.025 Backup_Path[5]
   - 0.025 Backup_Path[8] - 0.025 Backup_Path[10] - 0.025 Backup_Path[16]
   - 0.025 Backup_Path[17] - 0.025 Backup_Path[22] - 0.025 Backup_Path[27]
   - 0.025 Backup_Path[28] - 0.025 Backup_Path[47] - 0.025 Backup_Path[55]
   - 0.025 Backup_Path[58] - 2.326347874 U[1,2] >= 0
 [CONST]Link_Cap[1][3]: Backup_Capacity[1,3] - 0.025 Backup_Path[6]
   - 0.025 Backup_Path[11] - 0.025 Backup_Path[12] - 0.025 Backup_Path[18]
   - 0.025 Backup_Path[19] - 0.025 Backup_Path[23] - 0.025 Backup_Path[24]
   - 0.025 Backup_Path[29] - 0.025 Backup_Path[32] - 0.025 Backup_Path[40]
   - 0.025 Backup_Path[43] - 2.326347874 U[1,3] >= 0
 [CONST]Link_Cap[2][0]: Backup_Capacity[2,0] - 0.025 Backup_Path[16]
   - 0.025 Backup_Path[19] - 0.025 Backup_Path[27] - 0.025 Backup_Path[30]
   - 0.025 Backup_Path[35] - 0.025 Backup_Path[36] - 0.025 Backup_Path[40]
   - 0.025 Backup_Path[41] - 0.025 Backup_Path[47] - 0.025 Backup_Path[48]
   - 0.025 Backup_Path[53] - 2.326347874 U[2,0] >= 0
 [CONST]Link_Cap[2][1]: Backup_Capacity[2,1] - 0.025 Backup_Path[1]
   - 0.025 Backup_Path[4] - 0.025 Backup_Path[12] - 0.025 Backup_Path[31]
   - 0.025 Backup_Path[32] - 0.025 Backup_Path[37] - 0.025 Backup_Path[42]
   - 0.025 Backup_Path[43] - 0.025 Backup_Path[49] - 0.025 Backup_Path[51]
   - 0.025 Backup_Path[54] - 2.326347874 U[2,1] >= 0
 [CONST]Link_Cap[2][3]: Backup_Capacity[2,3] - 0.025 Backup_Path[2]
   - 0.025 Backup_Path[10] - 0.025 Backup_Path[13] - 0.025 Backup_Path[17]
   - 0.025 Backup_Path[25] - 0.025 Backup_Path[28] - 0.025 Backup_Path[33]
   - 0.025 Backup_Path[34] - 0.025 Backup_Path[38] - 0.025 Backup_Path[39]
   - 0.025 Backup_Path[44] - 2.326347874 U[2,3] >= 0
 [CONST]Link_Cap[3][0]: Backup_Capacity[3,0] - 0.025 Backup_Path[17]
   - 0.025 Backup_Path[18] - 0.025 Backup_Path[23] - 0.025 Backup_Path[32]
   - 0.025 Backup_Path[33] - 0.025 Backup_Path[38] - 0.025 Backup_Path[45]
   - 0.025 Backup_Path[50] - 0.025 Backup_Path[51] - 0.025 Backup_Path[55]
   - 0.025 Backup_Path[56] - 2.326347874 U[3,0] >= 0
 [CONST]Link_Cap[3][1]: Backup_Capacity[3,1] - 0.025 Backup_Path[2]
   - 0.025 Backup_Path[3] - 0.025 Backup_Path[8] - 0.025 Backup_Path[34]
   - 0.025 Backup_Path[36] - 0.025 Backup_Path[39] - 0.025 Backup_Path[46]
   - 0.025 Backup_Path[47] - 0.025 Backup_Path[52] - 0.025 Backup_Path[57]
   - 0.025 Backup_Path[58] - 2.326347874 U[3,1] >= 0
 [CONST]Link_Cap[3][2]: Backup_Capacity[3,2] - 0.025 Backup_Path[4]
   - 0.025 Backup_Path[6] - 0.025 Backup_Path[9] - 0.025 Backup_Path[19]
   - 0.025 Backup_Path[21] - 0.025 Backup_Path[24] - 0.025 Backup_Path[48]
   - 0.025 Backup_Path[49] - 0.025 Backup_Path[53] - 0.025 Backup_Path[54]
   - 0.025 Backup_Path[59] - 2.326347874 U[3,2] >= 0
 [CONST]SCOP2[0][1][0]: 0.15612494995996 Backup_Path[0] - R[0,1,0] = 0
 [CONST]SCOP2[0][1][5]: 0.15612494995996 Backup_Path[5] - R[0,1,5] = 0
 [CONST]SCOP2[0][1][6]: 0.15612494995996 Backup_Path[6] - R[0,1,6] = 0
 [CONST]SCOP2[0][1][10]: 0.15612494995996 Backup_Path[10] - R[0,1,10] = 0
 [CONST]SCOP2[0][1][11]: 0.15612494995996 Backup_Path[11] - R[0,1,11] = 0
 [CONST]SCOP2[0][1][35]: 0.15612494995996 Backup_Path[35] - R[0,1,35] = 0
 [CONST]SCOP2[0][1][38]: 0.15612494995996 Backup_Path[38] - R[0,1,38] = 0
 [CONST]SCOP2[0][1][40]: 0.15612494995996 Backup_Path[40] - R[0,1,40] = 0
 [CONST]SCOP2[0][1][50]: 0.15612494995996 Backup_Path[50] - R[0,1,50] = 0
 [CONST]SCOP2[0][1][53]: 0.15612494995996 Backup_Path[53] - R[0,1,53] = 0
 [CONST]SCOP2[0][1][55]: 0.15612494995996 Backup_Path[55] - R[0,1,55] = 0
 [CONST]SCOP2[0][2][1]: 0.15612494995996 Backup_Path[1] - R[0,2,1] = 0
 [CONST]SCOP2[0][2][2]: 0.15612494995996 Backup_Path[2] - R[0,2,2] = 0
 [CONST]SCOP2[0][2][7]: 0.15612494995996 Backup_Path[7] - R[0,2,7] = 0
 [CONST]SCOP2[0][2][12]: 0.15612494995996 Backup_Path[12] - R[0,2,12] = 0
 [CONST]SCOP2[0][2][13]: 0.15612494995996 Backup_Path[13] - R[0,2,13] = 0
 [CONST]SCOP2[0][2][20]: 0.15612494995996 Backup_Path[20] - R[0,2,20] = 0
 [CONST]SCOP2[0][2][23]: 0.15612494995996 Backup_Path[23] - R[0,2,23] = 0
 [CONST]SCOP2[0][2][25]: 0.15612494995996 Backup_Path[25] - R[0,2,25] = 0
 [CONST]SCOP2[0][2][51]: 0.15612494995996 Backup_Path[51] - R[0,2,51] = 0
 [CONST]SCOP2[0][2][56]: 0.15612494995996 Backup_Path[56] - R[0,2,56] = 0
 [CONST]SCOP2[0][2][57]: 0.15612494995996 Backup_Path[57] - R[0,2,57] = 0
 [CONST]SCOP2[0][3][3]: 0.15612494995996 Backup_Path[3] - R[0,3,3] = 0
 [CONST]SCOP2[0][3][4]: 0.15612494995996 Backup_Path[4] - R[0,3,4] = 0
 [CONST]SCOP2[0][3][8]: 0.15612494995996 Backup_Path[8] - R[0,3,8] = 0
 [CONST]SCOP2[0][3][9]: 0.15612494995996 Backup_Path[9] - R[0,3,9] = 0
 [CONST]SCOP2[0][3][14]: 0.15612494995996 Backup_Path[14] - R[0,3,14] = 0
 [CONST]SCOP2[0][3][21]: 0.15612494995996 Backup_Path[21] - R[0,3,21] = 0
 [CONST]SCOP2[0][3][26]: 0.15612494995996 Backup_Path[26] - R[0,3,26] = 0
 [CONST]SCOP2[0][3][27]: 0.15612494995996 Backup_Path[27] - R[0,3,27] = 0
 [CONST]SCOP2[0][3][36]: 0.15612494995996 Backup_Path[36] - R[0,3,36] = 0
 [CONST]SCOP2[0][3][41]: 0.15612494995996 Backup_Path[41] - R[0,3,41] = 0
 [CONST]SCOP2[0][3][42]: 0.15612494995996 Backup_Path[42] - R[0,3,42] = 0
 [CONST]SCOP2[1][0][15]: 0.15612494995996 Backup_Path[15] - R[1,0,15] = 0
 [CONST]SCOP2[1][0][20]: 0.15612494995996 Backup_Path[20] - R[1,0,20] = 0
 [CONST]SCOP2[1][0][21]: 0.15612494995996 Backup_Path[21] - R[1,0,21] = 0
 [CONST]SCOP2[1][0][25]: 0.15612494995996 Backup_Path[25] - R[1,0,25] = 0
 [CONST]SCOP2[1][0][26]: 0.15612494995996 Backup_Path[26] - R[1,0,26] = 0
 [CONST]SCOP2[1][0][31]: 0.15612494995996 Backup_Path[31] - R[1,0,31] = 0
 [CONST]SCOP2[1][0][34]: 0.15612494995996 Backup_Path[34] - R[1,0,34] = 0
 [CONST]SCOP2[1][0][42]: 0.15612494995996 Backup_Path[42] - R[1,0,42] = 0
 [CONST]SCOP2[1][0][46]: 0.15612494995996 Backup_Path[46] - R[1,0,46] = 0
 [CONST]SCOP2[1][0][49]: 0.15612494995996 Backup_Path[49] - R[1,0,49] = 0
 [CONST]SCOP2[1][0][57]: 0.15612494995996 Backup_Path[57] - R[1,0,57] = 0
 [CONST]SCOP2[1][2][5]: 0.15612494995996 Backup_Path[5] - R[1,2,5] = 0
 [CONST]SCOP2[1][2][8]: 0.15612494995996 Backup_Path[8] - R[1,2,8] = 0
 [CONST]SCOP2[1][2][10]: 0.15612494995996 Backup_Path[10] - R[1,2,10] = 0
 [CONST]SCOP2[1][2][16]: 0.15612494995996 Backup_Path[16] - R[1,2,16] = 0
 [CONST]SCOP2[1][2][17]: 0.15612494995996 Backup_Path[17] - R[1,2,17] = 0
 [CONST]SCOP2[1][2][22]: 0.15612494995996 Backup_Path[22] - R[1,2,22] = 0
 [CONST]SCOP2[1][2][27]: 0.15612494995996 Backup_Path[27] - R[1,2,27] = 0
 [CONST]SCOP2[1][2][28]: 0.15612494995996 Backup_Path[28] - R[1,2,28] = 0
 [CONST]SCOP2[1][2][47]: 0.15612494995996 Backup_Path[47] - R[1,2,47] = 0
 [CONST]SCOP2[1][2][55]: 0.15612494995996 Backup_Path[55] - R[1,2,55] = 0
 [CONST]SCOP2[1][2][58]: 0.15612494995996 Backup_Path[58] - R[1,2,58] = 0
 [CONST]SCOP2[1][3][6]: 0.15612494995996 Backup_Path[6] - R[1,3,6] = 0
 [CONST]SCOP2[1][3][11]: 0.15612494995996 Backup_Path[11] - R[1,3,11] = 0
 [CONST]SCOP2[1][3][12]: 0.15612494995996 Backup_Path[12] - R[1,3,12] = 0
 [CONST]SCOP2[1][3][18]: 0.15612494995996 Backup_Path[18] - R[1,3,18] = 0
 [CONST]SCOP2[1][3][19]: 0.15612494995996 Backup_Path[19] - R[1,3,19] = 0
 [CONST]SCOP2[1][3][23]: 0.15612494995996 Backup_Path[23] - R[1,3,23] = 0
 [CONST]SCOP2[1][3][24]: 0.15612494995996 Backup_Path[24] - R[1,3,24] = 0
 [CONST]SCOP2[1][3][29]: 0.15612494995996 Backup_Path[29] - R[1,3,29] = 0
 [CONST]SCOP2[1][3][32]: 0.15612494995996 Backup_Path[32] - R[1,3,32] = 0
 [CONST]SCOP2[1][3][40]: 0.15612494995996 Backup_Path[40] - R[1,3,40] = 0
 [CONST]SCOP2[1][3][43]: 0.15612494995996 Backup_Path[43] - R[1,3,43] = 0
 [CONST]SCOP2[2][0][16]: 0.15612494995996 Backup_Path[16] - R[2,0,16] = 0
 [CONST]SCOP2[2][0][19]: 0.15612494995996 Backup_Path[19] - R[2,0,19] = 0
 [CONST]SCOP2[2][0][27]: 0.15612494995996 Backup_Path[27] - R[2,0,27] = 0
 [CONST]SCOP2[2][0][30]: 0.15612494995996 Backup_Path[30] - R[2,0,30] = 0
 [CONST]SCOP2[2][0][35]: 0.15612494995996 Backup_Path[35] - R[2,0,35] = 0
 [CONST]SCOP2[2][0][36]: 0.15612494995996 Backup_Path[36] - R[2,0,36] = 0
 [CONST]SCOP2[2][0][40]: 0.15612494995996 Backup_Path[40] - R[2,0,40] = 0
 [CONST]SCOP2[2][0][41]: 0.15612494995996 Backup_Path[41] - R[2,0,41] = 0
 [CONST]SCOP2[2][0][47]: 0.15612494995996 Backup_Path[47] - R[2,0,47] = 0
 [CONST]SCOP2[2][0][48]: 0.15612494995996 Backup_Path[48] - R[2,0,48] = 0
 [CONST]SCOP2[2][0][53]: 0.15612494995996 Backup_Path[53] - R[2,0,53] = 0
 [CONST]SCOP2[2][1][1]: 0.15612494995996 Backup_Path[1] - R[2,1,1] = 0
 [CONST]SCOP2[2][1][4]: 0.15612494995996 Backup_Path[4] - R[2,1,4] = 0
 [CONST]SCOP2[2][1][12]: 0.15612494995996 Backup_Path[12] - R[2,1,12] = 0
 [CONST]SCOP2[2][1][31]: 0.15612494995996 Backup_Path[31] - R[2,1,31] = 0
 [CONST]SCOP2[2][1][32]: 0.15612494995996 Backup_Path[32] - R[2,1,32] = 0
 [CONST]SCOP2[2][1][37]: 0.15612494995996 Backup_Path[37] - R[2,1,37] = 0
 [CONST]SCOP2[2][1][42]: 0.15612494995996 Backup_Path[42] - R[2,1,42] = 0
 [CONST]SCOP2[2][1][43]: 0.15612494995996 Backup_Path[43] - R[2,1,43] = 0
 [CONST]SCOP2[2][1][49]: 0.15612494995996 Backup_Path[49] - R[2,1,49] = 0
 [CONST]SCOP2[2][1][51]: 0.15612494995996 Backup_Path[51] - R[2,1,51] = 0
 [CONST]SCOP2[2][1][54]: 0.15612494995996 Backup_Path[54] - R[2,1,54] = 0
 [CONST]SCOP2[2][3][2]: 0.15612494995996 Backup_Path[2] - R[2,3,2] = 0
 [CONST]SCOP2[2][3][10]: 0.15612494995996 Backup_Path[10] - R[2,3,10] = 0
 [CONST]SCOP2[2][3][13]: 0.15612494995996 Backup_Path[13] - R[2,3,13] = 0
 [CONST]SCOP2[2][3][17]: 0.15612494995996 Backup_Path[17] - R[2,3,17] = 0
 [CONST]SCOP2[2][3][25]: 0.15612494995996 Backup_Path[25] - R[2,3,25] = 0
 [CONST]SCOP2[2][3][28]: 0.15612494995996 Backup_Path[28] - R[2,3,28] = 0
 [CONST]SCOP2[2][3][33]: 0.15612494995996 Backup_Path[33] - R[2,3,33] = 0
 [CONST]SCOP2[2][3][34]: 0.15612494995996 Backup_Path[34] - R[2,3,34] = 0
 [CONST]SCOP2[2][3][38]: 0.15612494995996 Backup_Path[38] - R[2,3,38] = 0
 [CONST]SCOP2[2][3][39]: 0.15612494995996 Backup_Path[39] - R[2,3,39] = 0
 [CONST]SCOP2[2][3][44]: 0.15612494995996 Backup_Path[44] - R[2,3,44] = 0
 [CONST]SCOP2[3][0][17]: 0.15612494995996 Backup_Path[17] - R[3,0,17] = 0
 [CONST]SCOP2[3][0][18]: 0.15612494995996 Backup_Path[18] - R[3,0,18] = 0
 [CONST]SCOP2[3][0][23]: 0.15612494995996 Backup_Path[23] - R[3,0,23] = 0
 [CONST]SCOP2[3][0][32]: 0.15612494995996 Backup_Path[32] - R[3,0,32] = 0
 [CONST]SCOP2[3][0][33]: 0.15612494995996 Backup_Path[33] - R[3,0,33] = 0
 [CONST]SCOP2[3][0][38]: 0.15612494995996 Backup_Path[38] - R[3,0,38] = 0
 [CONST]SCOP2[3][0][45]: 0.15612494995996 Backup_Path[45] - R[3,0,45] = 0
 [CONST]SCOP2[3][0][50]: 0.15612494995996 Backup_Path[50] - R[3,0,50] = 0
 [CONST]SCOP2[3][0][51]: 0.15612494995996 Backup_Path[51] - R[3,0,51] = 0
 [CONST]SCOP2[3][0][55]: 0.15612494995996 Backup_Path[55] - R[3,0,55] = 0
 [CONST]SCOP2[3][0][56]: 0.15612494995996 Backup_Path[56] - R[3,0,56] = 0
 [CONST]SCOP2[3][1][2]: 0.15612494995996 Backup_Path[2] - R[3,1,2] = 0
 [CONST]SCOP2[3][1][3]: 0.15612494995996 Backup_Path[3] - R[3,1,3] = 0
 [CONST]SCOP2[3][1][8]: 0.15612494995996 Backup_Path[8] - R[3,1,8] = 0
 [CONST]SCOP2[3][1][34]: 0.15612494995996 Backup_Path[34] - R[3,1,34] = 0
 [CONST]SCOP2[3][1][36]: 0.15612494995996 Backup_Path[36] - R[3,1,36] = 0
 [CONST]SCOP2[3][1][39]: 0.15612494995996 Backup_Path[39] - R[3,1,39] = 0
 [CONST]SCOP2[3][1][46]: 0.15612494995996 Backup_Path[46] - R[3,1,46] = 0
 [CONST]SCOP2[3][1][47]: 0.15612494995996 Backup_Path[47] - R[3,1,47] = 0
 [CONST]SCOP2[3][1][52]: 0.15612494995996 Backup_Path[52] - R[3,1,52] = 0
 [CONST]SCOP2[3][1][57]: 0.15612494995996 Backup_Path[57] - R[3,1,57] = 0
 [CONST]SCOP2[3][1][58]: 0.15612494995996 Backup_Path[58] - R[3,1,58] = 0
 [CONST]SCOP2[3][2][4]: 0.15612494995996 Backup_Path[4] - R[3,2,4] = 0
 [CONST]SCOP2[3][2][6]: 0.15612494995996 Backup_Path[6] - R[3,2,6] = 0
 [CONST]SCOP2[3][2][9]: 0.15612494995996 Backup_Path[9] - R[3,2,9] = 0
 [CONST]SCOP2[3][2][19]: 0.15612494995996 Backup_Path[19] - R[3,2,19] = 0
 [CONST]SCOP2[3][2][21]: 0.15612494995996 Backup_Path[21] - R[3,2,21] = 0
 [CONST]SCOP2[3][2][24]: 0.15612494995996 Backup_Path[24] - R[3,2,24] = 0
 [CONST]SCOP2[3][2][48]: 0.15612494995996 Backup_Path[48] - R[3,2,48] = 0
 [CONST]SCOP2[3][2][49]: 0.15612494995996 Backup_Path[49] - R[3,2,49] = 0
 [CONST]SCOP2[3][2][53]: 0.15612494995996 Backup_Path[53] - R[3,2,53] = 0
 [CONST]SCOP2[3][2][54]: 0.15612494995996 Backup_Path[54] - R[3,2,54] = 0
 [CONST]SCOP2[3][2][59]: 0.15612494995996 Backup_Path[59] - R[3,2,59] = 0
 UniquePath[0,1]: Backup_Path[0] + Backup_Path[1] + Backup_Path[2]
   + Backup_Path[3] + Backup_Path[4] = 1
 UniquePath[0,2]: Backup_Path[5] + Backup_Path[6] + Backup_Path[7]
   + Backup_Path[8] + Backup_Path[9] = 1
 UniquePath[0,3]: Backup_Path[10] + Backup_Path[11] + Backup_Path[12]
   + Backup_Path[13] + Backup_Path[14] = 1
 UniquePath[1,0]: Backup_Path[15] + Backup_Path[16] + Backup_Path[17]
   + Backup_Path[18] + Backup_Path[19] = 1
 UniquePath[1,2]: Backup_Path[20] + Backup_Path[21] + Backup_Path[22]
   + Backup_Path[23] + Backup_Path[24] = 1
 UniquePath[1,3]: Backup_Path[25] + Backup_Path[26] + Backup_Path[27]
   + Backup_Path[28] + Backup_Path[29] = 1
 UniquePath[2,0]: Backup_Path[30] + Backup_Path[31] + Backup_Path[32]
   + Backup_Path[33] + Backup_Path[34] = 1
 UniquePath[2,1]: Backup_Path[35] + Backup_Path[36] + Backup_Path[37]
   + Backup_Path[38] + Backup_Path[39] = 1
 UniquePath[2,3]: Backup_Path[40] + Backup_Path[41] + Backup_Path[42]
   + Backup_Path[43] + Backup_Path[44] = 1
 UniquePath[3,0]: Backup_Path[45] + Backup_Path[46] + Backup_Path[47]
   + Backup_Path[48] + Backup_Path[49] = 1
 UniquePath[3,1]: Backup_Path[50] + Backup_Path[51] + Backup_Path[52]
   + Backup_Path[53] + Backup_Path[54] = 1
 UniquePath[3,2]: Backup_Path[55] + Backup_Path[56] + Backup_Path[57]
   + Backup_Path[58] + Backup_Path[59] = 1
 [CONST]SCOP1[0][1]: [ - U[0,1] ^2 + R[0,1,0] ^2 + R[0,1,5] ^2
   + R[0,1,6] ^2 + R[0,1,10] ^2 + R[0,1,11] ^2 + R[0,1,35] ^2
   + R[0,1,38] ^2 + R[0,1,40] ^2 + R[0,1,50] ^2 + R[0,1,53] ^2
   + R[0,1,55] ^2 ] <= 0
 [CONST]SCOP1[0][2]: [ - U[0,2] ^2 + R[0,2,1] ^2 + R[0,2,2] ^2
   + R[0,2,7] ^2 + R[0,2,12] ^2 + R[0,2,13] ^2 + R[0,2,20] ^2
   + R[0,2,23] ^2 + R[0,2,25] ^2 + R[0,2,51] ^2 + R[0,2,56] ^2
   + R[0,2,57] ^2 ] <= 0
 [CONST]SCOP1[0][3]: [ - U[0,3] ^2 + R[0,3,3] ^2 + R[0,3,4] ^2
   + R[0,3,8] ^2 + R[0,3,9] ^2 + R[0,3,14] ^2 + R[0,3,21] ^2 + R[0,3,26] ^2
   + R[0,3,27] ^2 + R[0,3,36] ^2 + R[0,3,41] ^2 + R[0,3,42] ^2 ] <= 0
 [CONST]SCOP1[1][0]: [ - U[1,0] ^2 + R[1,0,15] ^2 + R[1,0,20] ^2
   + R[1,0,21] ^2 + R[1,0,25] ^2 + R[1,0,26] ^2 + R[1,0,31] ^2
   + R[1,0,34] ^2 + R[1,0,42] ^2 + R[1,0,46] ^2 + R[1,0,49] ^2
   + R[1,0,57] ^2 ] <= 0
 [CONST]SCOP1[1][2]: [ - U[1,2] ^2 + R[1,2,5] ^2 + R[1,2,8] ^2
   + R[1,2,10] ^2 + R[1,2,16] ^2 + R[1,2,17] ^2 + R[1,2,22] ^2
   + R[1,2,27] ^2 + R[1,2,28] ^2 + R[1,2,47] ^2 + R[1,2,55] ^2
   + R[1,2,58] ^2 ] <= 0
 [CONST]SCOP1[1][3]: [ - U[1,3] ^2 + R[1,3,6] ^2 + R[1,3,11] ^2
   + R[1,3,12] ^2 + R[1,3,18] ^2 + R[1,3,19] ^2 + R[1,3,23] ^2
   + R[1,3,24] ^2 + R[1,3,29] ^2 + R[1,3,32] ^2 + R[1,3,40] ^2
   + R[1,3,43] ^2 ] <= 0
 [CONST]SCOP1[2][0]: [ - U[2,0] ^2 + R[2,0,16] ^2 + R[2,0,19] ^2
   + R[2,0,27] ^2 + R[2,0,30] ^2 + R[2,0,35] ^2 + R[2,0,36] ^2
   + R[2,0,40] ^2 + R[2,0,41] ^2 + R[2,0,47] ^2 + R[2,0,48] ^2
   + R[2,0,53] ^2 ] <= 0
 [CONST]SCOP1[2][1]: [ - U[2,1] ^2 + R[2,1,1] ^2 + R[2,1,4] ^2
   + R[2,1,12] ^2 + R[2,1,31] ^2 + R[2,1,32] ^2 + R[2,1,37] ^2
   + R[2,1,42] ^2 + R[2,1,43] ^2 + R[2,1,49] ^2 + R[2,1,51] ^2
   + R[2,1,54] ^2 ] <= 0
 [CONST]SCOP1[2][3]: [ - U[2,3] ^2 + R[2,3,2] ^2 + R[2,3,10] ^2
   + R[2,3,13] ^2 + R[2,3,17] ^2 + R[2,3,25] ^2 + R[2,3,28] ^2
   + R[2,3,33] ^2 + R[2,3,34] ^2 + R[2,3,38] ^2 + R[2,3,39] ^2
   + R[2,3,44] ^2 ] <= 0
 [CONST]SCOP1[3][0]: [ - U[3,0] ^2 + R[3,0,17] ^2 + R[3,0,18] ^2
   + R[3,0,23] ^2 + R[3,0,32] ^2 + R[3,0,33] ^2 + R[3,0,38] ^2
   + R[3,0,45] ^2 + R[3,0,50] ^2 + R[3,0,51] ^2 + R[3,0,55] ^2
   + R[3,0,56] ^2 ] <= 0
 [CONST]SCOP1[3][1]: [ - U[3,1] ^2 + R[3,1,2] ^2 + R[3,1,3] ^2
   + R[3,1,8] ^2 + R[3,1,34] ^2 + R[3,1,36] ^2 + R[3,1,39] ^2
   + R[3,1,46] ^2 + R[3,1,47] ^2 + R[3,1,52] ^2 + R[3,1,57] ^2
   + R[3,1,58] ^2 ] <= 0
 [CONST]SCOP1[3][2]: [ - U[3,2] ^2 + R[3,2,4] ^2 + R[3,2,6] ^2
   + R[3,2,9] ^2 + R[3,2,19] ^2 + R[3,2,21] ^2 + R[3,2,24] ^2
   + R[3,2,48] ^2 + R[3,2,49] ^2 + R[3,2,53] ^2 + R[3,2,54] ^2
   + R[3,2,59] ^2 ] <= 0
Bounds
Binaries
 Backup_Path[0] Backup_Path[1] Backup_Path[2] Backup_Path[3] Backup_Path[4]
 Backup_Path[5] Backup_Path[6] Backup_Path[7] Backup_Path[8] Backup_Path[9]
 Backup_Path[10] Backup_Path[11] Backup_Path[12] Backup_Path[13]
 Backup_Path[14] Backup_Path[15] Backup_Path[16] Backup_Path[17]
 Backup_Path[18] Backup_Path[19] Backup_Path[20] Backup_Path[21]
 Backup_Path[22] Backup_Path[23] Backup_Path[24] Backup_Path[25]
 Backup_Path[26] Backup_Path[27] Backup_Path[28] Backup_Path[29]
 Backup_Path[30] Backup_Path[31] Backup_Path[32] Backup_Path[33]
 Backup_Path[34] Backup_Path[35] Backup_Path[36] Backup_Path[37]
 Backup_Path[38] Backup_Path[39] Backup_Path[40] Backup_Path[41]
 Backup_Path[42] Backup_Path[43] Backup_Path[44] Backup_Path[45]
 Backup_Path[46] Backup_Path[47] Backup_Path[48] Backup_Path[49]
 Backup_Path[50] Backup_Path[51] Backup_Path[52] Backup_Path[53]
 Backup_Path[54] Backup_Path[55] Backup_Path[56] Backup_Path[57]
 Backup_Path[58] Backup_Path[59]
End
